60
2 0 315
2 1 300
3 0 155
3 1 91
3 2 17
4 0 186
4 1 270
4 2 187
4 3 234
5 0 155
5 1 265
5 2 271
5 3 17
6 0 35
6 1 58
6 2 122
6 3 224
6 4 149
6 5 242
7 0 108
7 1 62
7 2 319
7 3 71
7 4 292
7 5 286
7 6 73
8 0 316
8 1 128
8 2 286
8 3 145
8 4 175
8 5 158
8 6 10
8 7 121
9 1 6
9 2 109
9 3 110
9 4 59
9 5 217
9 6 251
9 7 287
10 0 272
10 2 255
10 3 152
10 4 100
10 5 58
10 6 314
10 7 221
10 8 221
10 9 309
11 0 294
11 1 21
11 3 155
11 4 187
11 5 26
11 6 276
11 8 96
11 9 232
11 10 271
12 0 74
12 1 307
12 3 31
12 4 52
12 5 43
12 6 243
12 7 223
12 8 263
12 9 310
12 10 283
13 0 57
13 1 176
13 3 202
13 4 34
13 5 89
13 6 194
13 7 78
13 8 122
13 9 284
13 10 179
13 11 5
13 12 123
14 1 145
14 3 282
14 4 153
14 6 309
14 8 225
14 10 173
14 11 156
14 12 211
14 13 204
15 0 113
15 1 285
15 2 191
15 4 9
15 5 205
15 6 5
15 7 149
15 8 253
15 9 138
15 10 84
15 11 212
15 12 182
15 13 241
15 14 113
16 0 160
16 1 98
16 2 250
16 4 271
16 5 192
16 7 30
16 8 282
16 9 278
16 10 194
16 12 33
16 13 40
16 14 67
16 15 236
17 0 163
17 1 179
17 2 66
17 3 146
17 6 101
17 7 256
17 8 204
17 9 78
17 10 31
17 11 56
17 12 150
17 13 180
17 14 113
17 15 167
17 16 183
18 0 106
18 1 156
18 2 159
18 3 52
18 4 148
18 5 314
18 6 132
18 7 151
18 8 118
18 9 274
18 10 293
18 12 300
18 13 299
18 14 108
18 15 208
18 16 257
18 17 20
19 1 229
19 2 170
19 3 162
19 4 63
19 5 291
19 6 152
19 7 318
19 8 114
19 9 15
19 10 101
19 12 245
19 13 84
19 14 251
19 15 258
19 16 174
19 17 193
19 18 185
20 1 98
20 2 194
20 3 211
20 4 107
20 5 242
20 6 290
20 7 2
20 8 60
20 9 279
20 10 218
20 11 271
20 12 118
20 13 24
20 14 50
20 15 203
20 16 202
20 17 250
20 18 115
20 19 307
21 1 57
21 2 225
21 3 11
21 4 99
21 5 235
21 6 275
21 7 63
21 8 130
21 10 48
21 11 165
21 12 275
21 13 72
21 14 136
21 15 174
21 16 92
21 17 129
21 18 212
21 19 224
21 20 101
22 0 179
22 1 144
22 2 308
22 3 143
22 4 60
22 5 262
22 6 317
22 7 71
22 8 170
22 9 134
22 10 280
22 11 271
22 12 102
22 13 247
22 14 277
22 15 57
22 18 7
22 19 261
22 20 43
22 21 119
23 0 247
23 1 99
23 2 232
23 3 184
23 4 319
23 5 207
23 6 101
23 7 303
23 8 20
23 9 56
23 10 260
23 11 53
23 12 111
23 13 209
23 14 272
23 15 189
23 16 14
23 17 195
23 18 57
23 19 284
23 20 19
23 21 294
23 22 281
24 0 208
24 1 54
24 2 5
24 3 13
24 4 49
24 5 252
24 6 162
24 7 17
24 8 174
24 9 17
24 10 25
24 12 80
24 13 63
24 14 175
24 16 158
24 17 309
24 18 115
24 20 121
24 21 311
24 22 298
24 23 301
25 0 204
25 1 148
25 2 158
25 3 16
25 4 48
25 5 292
25 6 169
25 7 216
25 9 134
25 10 68
25 11 149
25 12 63
25 13 161
25 14 177
25 15 186
25 16 142
25 17 179
25 18 177
25 19 297
25 20 2
25 21 29
25 22 75
25 24 74
26 0 92
26 2 108
26 3 15
26 4 145
26 5 188
26 6 251
26 7 85
26 8 273
26 9 81
26 10 10
26 11 168
26 13 138
26 14 204
26 16 312
26 17 252
26 18 176
26 19 5
26 20 263
26 21 267
26 22 117
26 23 318
26 24 305
26 25 99
27 0 84
27 1 87
27 2 53
27 3 38
27 4 122
27 5 193
27 6 272
27 7 77
27 8 295
27 11 112
27 12 49
27 13 37
27 14 263
27 15 99
27 16 85
27 17 206
27 18 188
27 19 231
27 20 99
27 22 226
27 23 297
27 24 212
27 26 231
28 0 219
28 1 305
28 2 266
28 3 319
28 4 155
28 5 277
28 7 146
28 8 314
28 9 225
28 10 90
28 11 198
28 12 2
28 13 313
28 14 1
28 15 246
28 16 66
28 17 158
28 18 49
28 19 244
28 20 231
28 21 299
28 22 47
28 23 183
28 25 30
28 26 192
28 27 227
29 0 44
29 1 194
29 2 318
29 3 165
29 5 274
29 6 256
29 7 94
29 8 149
29 9 148
29 10 19
29 11 168
29 12 199
29 13 129
29 15 274
29 16 81
29 17 243
29 18 98
29 19 294
29 20 132
29 21 49
29 22 309
29 23 119
29 24 262
29 25 129
29 26 13
29 27 274
29 28 306
30 0 166
30 1 32
30 2 77
30 3 86
30 4 15
30 5 278
30 6 297
30 7 204
30 8 255
30 9 54
30 10 72
30 11 260
30 12 285
30 13 82
30 14 22
30 15 158
30 16 46
30 17 289
30 18 280
30 19 7
30 20 19
30 21 235
30 22 99
30 23 281
30 24 296
30 25 239
30 26 52
30 27 144
30 28 264
30 29 5
31 0 234
31 1 249
31 2 173
31 5 109
31 6 79
31 7 212
31 8 249
31 10 248
31 11 141
31 12 131
31 13 125
31 14 296
31 15 276
31 16 93
31 17 46
31 18 214
31 19 1
31 20 229
31 21 174
31 22 89
31 23 284
31 25 269
31 26 276
31 27 155
31 28 152
31 29 11
31 30 9
32 0 104
32 1 74
32 2 308
32 3 260
32 4 38
32 5 139
32 6 319
32 7 283
32 8 147
32 9 60
32 10 169
32 11 319
32 12 40
32 13 203
32 14 319
32 15 119
32 16 235
32 17 219
32 18 198
32 19 256
32 20 125
32 21 128
32 22 46
32 23 34
32 24 64
32 25 94
32 26 76
32 27 288
32 28 307
32 29 15
32 31 30
33 0 155
33 1 234
33 2 224
33 3 290
33 4 189
33 5 115
33 6 191
33 7 277
33 8 261
33 9 168
33 10 108
33 11 69
33 12 63
33 13 261
33 14 177
33 15 122
33 16 34
33 17 1
33 19 66
33 20 230
33 21 209
33 22 25
33 23 34
33 24 180
33 25 227
33 26 218
33 27 81
33 28 271
33 29 150
33 30 279
33 31 316
34 0 20
34 2 184
34 3 7
34 4 42
34 5 277
34 6 61
34 7 160
34 8 182
34 9 183
34 10 290
34 12 138
34 13 102
34 14 293
34 15 279
34 16 14
34 17 8
34 18 175
34 19 149
34 20 176
34 21 259
34 22 256
34 24 8
34 25 4
34 26 226
34 27 188
34 28 25
34 29 281
34 30 247
34 31 261
34 32 220
34 33 288
35 0 266
35 1 139
35 2 211
35 3 183
35 4 121
35 5 162
35 7 303
35 9 97
35 10 194
35 11 222
35 12 250
35 13 178
35 14 112
35 15 167
35 16 3
35 17 8
35 18 12
35 19 300
35 20 15
35 21 118
35 22 132
35 23 128
35 24 148
35 25 222
35 26 247
35 27 296
35 28 184
35 29 119
35 30 10
35 32 179
35 34 124
36 0 136
36 1 201
36 2 300
36 3 297
36 4 292
36 5 37
36 6 220
36 7 75
36 9 178
36 10 100
36 11 166
36 12 151
36 13 24
36 14 84
36 15 167
36 16 132
36 17 36
36 18 25
36 19 256
36 20 188
36 21 148
36 22 28
36 23 115
36 24 190
36 26 60
36 27 190
36 28 221
36 29 203
36 30 22
36 31 79
36 32 279
36 33 30
36 34 255
36 35 69
37 0 39
37 1 113
37 2 308
37 6 97
37 8 222
37 10 58
37 11 184
37 12 232
37 13 257
37 14 55
37 15 155
37 18 190
37 19 58
37 20 116
37 22 159
37 23 224
37 24 31
37 25 198
37 26 188
37 27 96
37 28 64
37 29 109
37 30 319
37 31 201
37 32 151
37 34 12
37 35 285
37 36 266
38 0 63
38 1 163
38 2 136
38 3 31
38 4 149
38 5 98
38 6 277
38 8 114
38 9 287
38 10 150
38 11 198
38 12 185
38 13 126
38 14 294
38 15 177
38 16 250
38 17 223
38 18 208
38 19 252
38 20 144
38 21 125
38 23 314
38 24 7
38 25 58
38 26 103
38 27 130
38 28 95
38 29 268
38 30 197
38 32 252
38 33 165
38 34 48
38 35 156
38 36 193
38 37 125
39 0 241
39 1 227
39 3 95
39 4 12
39 5 235
39 6 313
39 7 166
39 8 222
39 9 20
39 10 320
39 11 153
39 12 284
39 13 163
39 14 220
39 15 300
39 17 309
39 18 97
39 19 260
39 20 304
39 22 41
39 24 298
39 25 148
39 27 16
39 29 115
39 30 17
39 31 121
39 32 34
39 34 139
39 35 76
39 36 296
39 37 90
39 38 161
40 0 297
40 1 136
40 2 103
40 3 43
40 4 7
40 5 105
40 6 291
40 7 134
40 8 36
40 9 255
40 10 23
40 12 7
40 13 201
40 14 46
40 15 279
40 16 277
40 17 27
40 18 52
40 19 239
40 20 132
40 21 172
40 22 106
40 23 227
40 24 70
40 25 227
40 26 134
40 27 2
40 28 272
40 29 97
40 30 29
40 31 196
40 32 254
40 33 46
40 34 44
40 35 196
40 36 176
40 37 120
40 38 109
40 39 225
41 0 182
41 1 223
41 2 79
41 3 157
41 4 8
41 5 300
41 6 155
41 7 144
41 8 201
41 9 141
41 10 132
41 12 49
41 14 33
41 15 77
41 16 21
41 17 221
41 18 320
41 19 282
41 20 267
41 21 253
41 22 306
41 23 58
41 24 145
41 25 306
41 27 36
41 28 223
41 29 158
41 30 48
41 32 139
41 33 24
41 34 233
41 35 21
41 36 313
41 37 114
41 38 190
41 39 123
41 40 18
42 0 116
42 2 177
42 3 137
42 5 293
42 6 77
42 7 201
42 8 188
42 9 24
42 10 6
42 11 215
42 12 197
42 14 209
42 15 127
42 16 29
42 17 34
42 18 288
42 19 282
42 20 104
42 21 152
42 22 103
42 23 285
42 24 20
42 25 313
42 26 74
42 28 178
42 29 10
42 30 250
42 31 220
42 32 16
42 33 279
42 34 29
42 35 71
42 36 163
42 37 183
42 38 224
42 39 203
42 40 40
42 41 122
43 0 145
43 1 257
43 2 109
43 3 185
43 4 89
43 5 192
43 6 144
43 7 150
43 8 158
43 9 265
43 10 304
43 12 185
43 13 271
43 14 270
43 15 197
43 16 127
43 17 295
43 18 26
43 19 28
43 21 319
43 22 254
43 23 80
43 24 118
43 25 140
43 26 153
43 28 96
43 29 177
43 30 261
43 31 218
43 32 161
43 33 40
43 34 104
43 35 157
43 36 112
43 37 129
43 38 204
43 39 26
43 40 137
43 41 309
43 42 40
44 0 319
44 1 164
44 2 202
44 3 96
44 4 89
44 5 236
44 6 93
44 7 150
44 8 300
44 10 284
44 11 279
44 12 16
44 13 66
44 14 180
44 15 53
44 16 234
44 17 87
44 18 34
44 19 158
44 20 263
44 21 254
44 22 184
44 23 155
44 24 74
44 25 47
44 26 29
44 27 113
44 28 34
44 29 44
44 30 189
44 31 298
44 32 222
44 33 229
44 34 118
44 35 77
44 36 195
44 38 134
44 39 273
44 41 86
44 42 34
44 43 207
45 0 182
45 1 139
45 2 222
45 3 69
45 4 216
45 5 18
45 6 306
45 7 246
45 8 92
45 9 290
45 10 208
45 11 223
45 13 202
45 14 200
45 15 80
45 16 124
45 18 149
45 19 206
45 20 107
45 21 246
45 22 21
45 23 207
45 24 287
45 25 232
45 26 37
45 27 3
45 28 1
45 29 261
45 30 77
45 31 5
45 32 306
45 34 32
45 35 223
45 36 142
45 38 205
45 39 46
45 40 197
45 42 144
45 43 222
46 0 55
46 1 6
46 3 310
46 4 95
46 5 103
46 6 189
46 7 141
46 8 283
46 9 157
46 10 55
46 12 185
46 13 123
46 14 141
46 15 183
46 16 274
46 17 305
46 18 104
46 19 61
46 20 203
46 21 286
46 23 63
46 24 41
46 25 309
46 26 275
46 27 116
46 28 293
46 29 186
46 31 257
46 33 308
46 35 309
46 37 98
46 38 219
46 39 99
46 40 17
46 41 150
46 42 210
46 43 127
46 44 39
46 45 159
47 0 2
47 2 250
47 4 226
47 5 178
47 6 253
47 7 266
47 8 279
47 9 15
47 10 100
47 11 233
47 12 157
47 13 56
47 14 213
47 15 52
47 16 53
47 17 105
47 18 69
47 19 53
47 20 141
47 21 74
47 22 311
47 23 58
47 24 248
47 25 296
47 26 107
47 27 2
47 28 143
47 29 224
47 30 63
47 31 5
47 32 174
47 33 320
47 34 56
47 35 75
47 36 126
47 37 124
47 38 281
47 39 27
47 40 9
47 41 18
47 42 175
47 43 261
47 44 187
47 46 71
48 0 204
48 2 227
48 3 156
48 4 9
48 5 103
48 6 117
48 7 287
48 8 32
48 10 280
48 11 68
48 12 57
48 13 57
48 15 150
48 16 299
48 17 150
48 18 271
48 19 53
48 20 187
48 22 216
48 23 266
48 24 201
48 25 124
48 26 98
48 27 161
48 28 37
48 29 87
48 30 108
48 31 134
48 32 180
48 33 182
48 34 250
48 35 139
48 36 125
48 37 199
48 38 30
48 39 276
48 40 158
48 42 67
48 43 57
48 44 128
48 45 216
48 46 252
48 47 241
49 0 129
49 1 91
49 2 218
49 3 205
49 4 61
49 6 230
49 7 179
49 8 319
49 9 300
49 10 43
49 11 201
49 12 268
49 13 14
49 14 57
49 15 25
49 16 264
49 17 290
49 18 294
49 19 166
49 20 294
49 21 234
49 22 236
49 23 175
49 25 59
49 26 264
49 27 282
49 29 229
49 31 105
49 32 150
49 33 91
49 35 222
49 36 149
49 38 213
49 39 264
49 40 262
49 41 188
49 42 173
49 45 142
49 46 206
49 47 300
49 48 274
50 0 154
50 1 250
50 2 142
50 3 303
50 4 314
50 5 85
50 6 7
50 7 68
50 8 48
50 9 236
50 10 201
50 11 92
50 12 141
50 13 63
50 14 118
50 15 106
50 16 191
50 17 152
50 18 109
50 20 291
50 21 257
50 22 258
50 23 75
50 24 90
50 25 79
50 26 1
50 27 38
50 28 127
50 29 37
50 30 114
50 31 185
50 32 225
50 33 8
50 34 72
50 35 277
50 36 283
50 37 51
50 38 238
50 39 22
50 40 68
50 41 257
50 43 109
50 44 11
50 45 310
50 46 45
50 47 257
50 48 217
51 1 262
51 2 171
51 3 203
51 4 251
51 5 169
51 6 51
51 7 21
51 8 24
51 9 301
51 10 251
51 11 173
51 12 122
51 13 11
51 14 178
51 15 128
51 16 319
51 17 40
51 18 308
51 19 185
51 20 240
51 21 76
51 22 50
51 23 308
51 26 181
51 27 283
51 28 224
51 29 258
51 30 3
51 31 256
51 32 7
51 33 94
51 34 5
51 35 66
51 36 150
51 37 280
51 39 245
51 40 176
51 41 200
51 42 111
51 43 72
51 44 23
51 45 53
51 46 286
51 47 145
51 48 220
51 49 287
51 50 261
52 0 66
52 1 168
52 2 92
52 3 218
52 4 71
52 5 11
52 6 119
52 7 42
52 8 127
52 10 53
52 11 151
52 13 305
52 14 53
52 15 65
52 16 315
52 17 173
52 18 192
52 19 260
52 21 236
52 22 276
52 23 163
52 24 30
52 25 271
52 26 156
52 27 224
52 29 20
52 30 182
52 31 289
52 32 129
52 33 41
52 34 88
52 35 83
52 36 122
52 37 186
52 38 150
52 39 298
52 40 8
52 41 60
52 42 33
52 43 121
52 44 110
52 45 123
52 46 281
52 47 193
52 48 277
52 49 34
52 50 275
52 51 204
53 0 238
53 1 97
53 2 159
53 3 271
53 5 229
53 6 213
53 7 266
53 9 232
53 10 110
53 11 267
53 12 227
53 13 218
53 14 182
53 16 273
53 18 67
53 19 129
53 20 239
53 21 1
53 22 16
53 23 181
53 24 63
53 25 218
53 26 71
53 27 177
53 28 108
53 29 27
53 30 216
53 31 161
53 32 228
53 33 22
53 35 39
53 36 139
53 37 87
53 38 262
53 39 313
53 40 236
53 41 235
53 43 159
53 44 250
53 45 23
53 48 201
53 49 21
53 50 205
53 51 22
53 52 162
54 0 16
54 1 248
54 2 271
54 4 234
54 5 205
54 6 199
54 7 205
54 8 154
54 9 134
54 10 221
54 11 18
54 12 215
54 13 88
54 14 225
54 15 230
54 16 203
54 17 282
54 19 67
54 20 187
54 21 168
54 23 235
54 24 279
54 25 62
54 26 255
54 27 47
54 28 252
54 29 26
54 30 173
54 31 103
54 32 260
54 33 145
54 34 53
54 35 317
54 37 40
54 38 145
54 39 192
54 40 120
54 41 177
54 42 203
54 43 273
54 44 249
54 45 166
54 46 219
54 47 51
54 48 166
54 49 163
54 50 288
54 51 70
54 52 268
54 53 176
55 0 84
55 2 118
55 3 243
55 4 197
55 5 198
55 6 254
55 7 80
55 8 182
55 9 186
55 10 225
55 11 146
55 12 190
55 13 276
55 14 220
55 15 304
55 16 75
55 17 315
55 18 74
55 20 237
55 21 282
55 22 270
55 23 238
55 24 53
55 25 206
55 26 289
55 27 38
55 28 316
55 29 183
55 30 290
55 31 104
55 32 253
55 34 94
55 35 18
55 36 146
55 37 100
55 38 157
55 39 62
55 40 138
55 41 218
55 42 273
55 43 273
55 44 47
55 45 162
55 46 274
55 47 166
55 48 201
55 49 318
55 50 245
55 51 22
55 53 162
55 54 265
56 0 172
56 2 273
56 3 249
56 4 7
56 5 139
56 6 295
56 7 315
56 8 50
56 9 314
56 10 272
56 12 135
56 14 6
56 15 246
56 16 16
56 17 2
56 18 66
56 19 76
56 20 247
56 21 74
56 22 148
56 24 185
56 25 190
56 26 145
56 27 218
56 28 215
56 29 246
56 31 39
56 32 20
56 33 314
56 34 34
56 35 268
56 36 110
56 37 157
56 38 303
56 39 192
56 40 210
56 41 260
56 42 59
56 43 66
56 44 89
56 45 168
56 46 231
56 47 58
56 48 205
56 49 5
56 50 167
56 51 48
56 52 84
56 53 313
56 54 168
56 55 208
57 0 84
57 2 243
57 3 294
57 4 99
57 5 64
57 6 147
57 7 148
57 8 222
57 9 218
57 10 197
57 11 301
57 12 74
57 13 31
57 14 60
57 15 90
57 16 221
57 17 4
57 18 280
57 19 7
57 20 1
57 21 39
57 22 19
57 23 297
57 24 133
57 25 310
57 26 210
57 27 125
57 28 316
57 29 169
57 30 190
57 31 202
57 32 244
57 33 112
57 34 279
57 35 318
57 36 81
57 37 37
57 39 146
57 40 131
57 42 242
57 43 303
57 44 187
57 45 99
57 46 174
57 47 138
57 48 229
57 49 175
57 50 258
57 51 178
57 52 206
57 53 156
57 54 35
57 55 317
57 56 110
58 0 205
58 1 41
58 2 297
58 3 217
58 4 174
58 5 168
58 6 308
58 7 235
58 8 142
58 9 175
58 10 61
58 11 120
58 12 284
58 13 58
58 14 241
58 16 312
58 17 257
58 18 149
58 19 52
58 20 66
58 21 317
58 22 280
58 23 61
58 24 198
58 25 271
58 27 275
58 28 121
58 29 212
58 30 57
58 33 40
58 34 195
58 35 248
58 36 282
58 37 147
58 38 314
58 39 288
58 40 46
58 41 193
58 42 232
58 43 176
58 44 29
58 45 31
58 46 193
58 47 183
58 48 197
58 49 249
58 50 185
58 51 177
58 52 46
58 53 145
58 54 227
58 55 5
58 56 310
58 57 78
59 0 276
59 1 167
59 2 244
59 3 297
59 4 275
59 5 184
59 6 169
59 7 234
59 8 267
59 9 168
59 10 141
59 11 123
59 12 310
59 13 249
59 14 76
59 15 143
59 16 264
59 17 19
59 18 64
59 19 60
59 20 311
59 21 166
59 22 275
59 23 158
59 24 212
59 25 293
59 26 288
59 27 208
59 28 211
59 29 68
59 30 4
59 31 295
59 32 178
59 34 89
59 35 159
59 36 100
59 37 311
59 38 139
59 39 34
59 40 263
59 41 61
59 42 26
59 43 161
59 44 267
59 45 218
59 46 105
59 47 88
59 48 217
59 49 41
59 50 180
59 51 101
59 52 180
59 54 316
59 55 146
59 56 100
59 57 18
59 58 27
